20J7M/DAT/20J7MNLL-7.dat
20 7
22.8236 22.8236
19.604 19.604
21.1902 21.1902
35.8275 35.8275
25.6816 25.6816
23.7686 23.7686
27.122 27.122
24.8421 24.8421
31.5055 31.5055
23.966 23.966
21.8952 21.8952
23.5051 23.5051
29.1644 29.1644
27.3088 27.3088
22.7875 22.7875
19.7961 19.7961
26.9242 26.9242
27.1786 27.1786
22.1038 22.1038
21.8695 21.8695
71.2663