20J7M/SOL/20J7MNLL-7.sol
solution status: optimal solution found
objective value:                              70.5199
x#1#3                                               1 	(obj:0)
x#2#2                              0.0944202337625677 	(obj:0)
x#2#6                               0.905579766237432 	(obj:0)
x#3#7                                               1 	(obj:0)
x#4#5                               0.863779021402102 	(obj:0)
x#4#6                               0.136220978597898 	(obj:0)
x#5#3                                               1 	(obj:0)
x#6#4                                               1 	(obj:0)
x#7#6                                               1 	(obj:0)
x#8#3                               0.929342344365723 	(obj:0)
x#8#7                              0.0706576556342774 	(obj:0)
x#9#5                                               1 	(obj:0)
x#10#4                                              1 	(obj:0)
x#11#1                                              1 	(obj:0)
x#12#2                                              1 	(obj:0)
x#13#1                              0.398062573730034 	(obj:0)
x#13#2                              0.601937426269966 	(obj:0)
x#14#2                                              1 	(obj:0)
x#15#5                                              1 	(obj:0)
x#16#1                              0.116036795603923 	(obj:0)
x#16#4                              0.510165256976619 	(obj:0)
x#16#7                              0.373797947419459 	(obj:0)
x#17#6                                              1 	(obj:0)
x#18#5                                              1 	(obj:0)
x#19#1                                              1 	(obj:0)
x#20#7                                              1 	(obj:0)
z                                             70.5199 	(obj:1)
